\ This file has been generated by DOcplex
\ ENCODING=ISO-8859-1
\Problem name: random_problem.lp

Minimize
 obj: 728 x0 + 364 x1 + 182 x2 - 1344 x3 - 672 x4 - 336 x5 + 84 x6 + 42 x7
      + 21 x8 + [ 2432 x0^2 + 2432 x0*x1 + 1216 x0*x2 + 2240 x0*x3 + 1120 x0*x4
      + 560 x0*x5 + 608 x1^2 + 608 x1*x2 + 1120 x1*x3 + 560 x1*x4 + 280 x1*x5
      + 152 x2^2 + 560 x2*x3 + 280 x2*x4 + 140 x2*x5 + 4192 x3^2 + 4192 x3*x4
      + 2096 x3*x5 + 4416 x3*x6 + 2208 x3*x7 + 1104 x3*x8 + 1048 x4^2
      + 1048 x4*x5 + 2208 x4*x6 + 1104 x4*x7 + 552 x4*x8 + 262 x5^2 + 1104 x5*x6
      + 552 x5*x7 + 276 x5*x8 + 4064 x6^2 + 4064 x6*x7 + 2032 x6*x8 + 1016 x7^2
      + 1016 x7*x8 + 254 x8^2 ]/2
Subject To
 c0: 4 x0 + 2 x1 + x2 + 4 x3 + 2 x4 + x5 + 4 x6 + 2 x7 + x8 = 7

Bounds
 0 <= x0 <= 1
 0 <= x1 <= 1
 0 <= x2 <= 1
 0 <= x3 <= 1
 0 <= x4 <= 1
 0 <= x5 <= 1
 0 <= x6 <= 1
 0 <= x7 <= 1
 0 <= x8 <= 1

Binaries
 x0 x1 x2 x3 x4 x5 x6 x7 x8
End
